
Gurobi 11.0.3 (linux64) logging started Fri Nov 22 23:04:06 2024

Set parameter LogFile to value "/home/yihong/Coding/OR_SUC/SUC_results_bigM100000_thread4/case24_ieee_rts_theta0.1_epsilon0.025_gurobi_seed1150000_num_gen100_N_WDR100_load_scaling_factor1_proposed_T20quadra_cost.txt"
Set parameter TimeLimit to value 3600
Gurobi Optimizer version 11.0.3 build v11.0.3rc0 (linux64 - "Ubuntu 20.04.6 LTS")

CPU model: AMD EPYC 7532 32-Core Processor, instruction set [SSE2|AVX|AVX2]
Thread count: 64 physical cores, 128 logical processors, using up to 4 threads

Optimize a model with 43202 rows, 24901 columns and 590362 nonzeros
Model fingerprint: 0x386a1b05
Model has 2000 quadratic constraints
Variable types: 22901 continuous, 2000 integer (2000 binary)
Coefficient statistics:
  Matrix range     [3e-04, 3e+03]
  QMatrix range    [2e-03, 8e-03]
  QLMatrix range   [2e-01, 6e+01]
  Objective range  [1e+00, 1e+00]
  Bounds range     [1e+00, 1e+00]
  RHS range        [1e+00, 9e+03]
Presolve removed 35064 rows and 10830 columns
Presolve time: 0.20s
Presolved: 8138 rows, 14071 columns, 51710 nonzeros
Presolved model has 2000 quadratic constraint(s)
Variable types: 12071 continuous, 2000 integer (2000 binary)

Root relaxation: objective 3.387691e+04, 6527 iterations, 0.15 seconds (0.20 work units)

    Nodes    |    Current Node    |     Objective Bounds      |     Work
 Expl Unexpl |  Obj  Depth IntInf | Incumbent    BestBd   Gap | It/Node Time

H    0     0                    595751.02470 33876.9118  94.3%     -    0s
*    0     0               0    595751.02470 33876.9118  94.3%     -    0s
     0     0 367537.524    0  499 595751.025 367537.524  38.3%     -    0s
     0     0 553735.873    0  176 595751.025 553735.873  7.05%     -    1s
     0     0 553856.997    0   46 595751.025 553856.997  7.03%     -    1s
     0     0 553857.365    0   46 595751.025 553857.365  7.03%     -    1s
     0     0 553857.614    0   46 595751.025 553857.614  7.03%     -    1s
     0     0 553857.614    0   46 595751.025 553857.614  7.03%     -    1s
     0     0 553857.666    0   46 595751.025 553857.666  7.03%     -    1s
     0     2 553857.666    0   46 595751.025 553857.666  7.03%     -    3s
H   83    88                    554137.31303 553860.731  0.05%  39.2    4s
*   83    88              26    554137.31303 553860.731  0.05%  39.2    4s

Cutting planes:
  Gomory: 56
  Lift-and-project: 1
  Implied bound: 238
  MIR: 25
  Flow cover: 57
  RLT: 318
  Relax-and-lift: 65

Explored 95 nodes (20209 simplex iterations) in 5.46 seconds (6.07 work units)
Thread count was 4 (of 128 available processors)

Solution count 3: 554137 554137 595751 

Optimal solution found (tolerance 1.00e-03)
Warning: max constraint violation (3.0561e-07) exceeds tolerance
Best objective 5.541373130307e+05, best bound 5.538607314630e+05, gap 0.0499%
